10  10
  0  88  1  77  2  74  3  2  4  65  5  3  6  3  7  27  8  3  9  66
  0  60  1  11  2  45  3  51  4  66  5  23  6  26  7  42  8  2  9  58
  0  1  1  6  2  19  3  22  4  21  5  72  6  31  7  61  8  22  9  11
  0  81  1  99  2  42  3  24  4  25  5  57  6  90  7  12  8  29  9  84
  0  23  1  77  2  96  3  22  4  9  5  72  6  88  7  64  8  86  9  3
  0  54  1  7  2  49  3  53  4  29  5  90  6  93  7  88  8  54  9  73
  0  44  1  44  2  17  3  99  4  20  5  25  6  26  7  39  8  5  9  52
  0  63  1  27  2  62  3  49  4  84  5  21  6  68  7  47  8  49  9  44
  0  83  1  43  2  19  3  2  4  77  5  61  6  33  7  83  8  75  9  84
  0  67  1  81  2  92  3  52  4  37  5  86  6  70  7  63  8  72  9  55
